Traveling Salesman Problem/TSP_generados/Aleatorio1621105174_19.tsp
NAME: Aleatorio1621105174_19.tsp
COMMENT: Randomly generated scenario
TYPE: TSP
DIMENSION: 19
EDGE_WEIGHT_TYPE: ATT
NODE_COORD_SECTION
1 12.59 13.78
2 17.96 33.45
3 9.73 28.55
4 3.97 32.85
5 24.0 25.23
6 8.16 19.37
7 33.83 5.0
8 17.81 14.24
9 48.8 30.15
10 23.7 32.48
11 16.77 47.09
12 2.28 42.31
13 14.87 27.47
14 1.59 40.6
15 13.41 3.76
16 11.82 23.02
17 31.67 31.06
18 10.24 21.95
19 1.6 46.38
