Traveling Salesman Problem/TSP_generados/Aleatorio1621105174_19.opt.tour
NAME: Aleatorio1621105174_19.opt.tour
COMMENT: Optimal solution for Aleatorio1621105174_19 (179.34405900729357)
TYPE: TOUR
DIMENSION: 19
TOUR_SECTION
1 8 15 7 9 17 5 10 2 11 19 12 14 4 3 13 16 18 6
-1
EOF
